c ---- [ banner ] ------------------------------------------------------------
c
c Kissat SAT Solver
c 
c Copyright (c) 2021-2024 Armin Biere University of Freiburg
c Copyright (c) 2019-2021 Armin Biere Johannes Kepler University Linz
c 
c Version 4.0.1 43f02cf3e992cb44653b35e5cb26f93281552ae0
c gcc (Ubuntu 13.2.0-23ubuntu4) 13.2.0 -W -Wall -O3 -DNDEBUG
c Thu Sep 12 12:27:46 CEST 2024 Linux abryzen9 6.8.0-41-generic x86_64
c
c ---- [ parsing ] -----------------------------------------------------------
c
c opened and reading DIMACS file:
c
c   /data/artifact/AMulet2.0_artifact/exp4/cnf_mfs_64/64_64_U1_DT_LF_Multgen_mfs.cnf
c
c parsed 'p cnf 34712 135644' header
c closing input after reading 2639217 bytes (3 MB)
c finished parsing after 0.02 seconds
c
c ---- [ options ] -----------------------------------------------------------
c
c --stable=0                       (different from default '1')
c
c ---- [ solving ] -----------------------------------------------------------
c
c  seconds switched rate     size/glue tier1  binary           remaining
c         MB reductions conflicts size  tier2     irredundant
c          level restarts redundant glue  trail           variables
c
c *  0.02 10 0 0 0  0 0   0   0 0.0 0 0 0 0 0% 27568 108074 34709 100%
c (  0.03 12 0 0 0  0 0   0   0 0.0 0 0 0 0 0% 27568 108074 34709 100%
c .  0.04 12 0 0 0  0 0   0   0 0.0 0 0 0 0 0% 27564 108074 34709 100%
c c  0.10 21 0 0 0  0 0   0   0 0.0 0 0 0 0 0% 34354 94494 31314 90%
c d  0.11 21 0 0 0  0 0   0   0 0.0 0 0 0 0 0% 27564 94494 31314 90%
c =  0.15 21 0 0 0  0 0   0   0 0.0 0 0 0 0 0% 28100 94494 31046 89%
c d  0.15 21 0 0 0  0 0   0   0 0.0 0 0 0 0 0% 27564 94494 31046 89%
c f  0.23 19 0 0 0  0 0   0   0 0.0 0 0 0 0 0% 30433 89894 32773 94%
c e  0.33 29 0 0 0  0 0   0   0 0.0 0 0 0 0 0% 8562 103885 21669 62%
c )  0.33 29 0 0 0  0 0   0   0 0.0 0 0 0 0 0% 8562 103885 21669 62%
c {  0.34 29 0 0 0  0 0   0   0 0.0 0 0 2 6 0% 8562 103885 21669 62%
c -  0.50 29 255 0 1 201 37 1000 783 3.9 21 5 3 10 20% 8587 103885 21669 62%
c -  0.71 29 243 0 2 375 42 2001 1482 3.8 25 7 2 11 25% 8619 103885 21669 62%
c c  0.81 25 244 0 2 394 37 2502 1943 3.6 22 6 2 12 27% 8624 103878 21667 62%
c d  0.81 25 244 0 2 394 37 2502 1943 3.6 22 6 2 12 27% 8620 103878 21667 62%
c u  0.83 25 244 0 2 394 37 2502 1549 3.6 22 6 2 12 27% 8624 103878 21667 62%
c v  0.86 25 244 0 2 394 37 2502 1217 3.6 22 6 2 12 27% 8624 103878 21667 62%
c w  0.86 25 244 0 2 394 37 2502 1217 3.6 22 6 2 12 27% 8624 103878 21667 62%
c x  0.88 25 244 0 2 394 37 2502 1217 3.6 22 6 2 12 27% 8624 103868 21667 62%
c =  0.93 25 244 0 2 394 37 2502 1217 3.6 22 6 2 12 27% 9044 103868 21457 62%
c
c  seconds   switched   rate       size/glue tier1     binary          remaining
c         MB  reductions conflicts       size  tier2      irredundant
c           level restarts    redundant    glue    trail          variables
c
c d  0.94 25 244 0 2 394 37 2502 1217 3.6 22 6 2 12 27% 8622 103868 21456 62%
c f  0.97 25 244 0 2 394 37 2502 1217 3.6 22 6 2 12 27% 9394 102419 22133 64%
c u  0.98 25 244 0 2 394 37 2502 1176 3.6 22 6 2 12 27% 9394 102419 22133 64%
c v  1.00 28 244 0 2 394 37 2502 1123 3.6 22 6 2 12 27% 9394 102419 22133 64%
c w  1.01 28 244 0 2 394 37 2502 1122 3.6 22 6 2 12 27% 9394 102419 22133 64%
c =  1.06 28 244 0 2 394 37 2502 1122 3.6 22 6 2 12 27% 9830 102419 21915 63%
c d  1.06 28 244 0 2 394 37 2502 1121 3.6 22 6 2 12 27% 9336 102419 21915 63%
c f  1.09 28 244 0 2 394 37 2502 1121 3.6 22 6 2 12 27% 9722 101840 22108 64%
c -  1.23 28 255 0 3 465 37 3415 1680 3.8 23 6 2 11 28% 9747 101840 22108 64%
c -  1.53 28 260 0 4 656 34 5148 2920 3.7 22 6 3 10 26% 9767 101840 22108 64%
c -  1.78 28 265 0 5 813 32 7149 3974 3.5 21 6 2 10 26% 9834 101840 22108 64%
c c  1.89 28 271 0 5 853 32 7705 4447 3.5 21 6 2 10 26% 9851 101732 22078 64%
c d  1.90 28 271 0 5 853 32 7705 4445 3.5 21 6 2 10 26% 9791 101732 22078 64%
c u  1.91 28 271 0 5 853 32 7705 3679 3.5 21 6 2 10 26% 9805 101732 22078 64%
c v  1.94 28 271 0 5 853 32 7705 3114 3.5 21 6 2 10 26% 9805 101732 22078 64%
c w  1.96 28 271 0 5 853 32 7705 3111 3.5 21 6 2 10 26% 9805 101732 22078 64%
c x  1.97 28 271 0 5 853 32 7705 3111 3.5 21 6 2 10 26% 9805 101123 22078 64%
c =  2.08 28 271 0 5 853 32 7705 3111 3.5 21 6 2 10 26% 10555 101123 21703 63%
c d  2.09 28 271 0 5 853 32 7705 3092 3.5 21 6 2 10 26% 9685 101123 21699 63%
c f  2.13 28 271 0 5 853 32 7705 3092 3.5 21 6 2 10 26% 11379 98582 22546 65%
c
c  seconds   switched   rate       size/glue tier1     binary          remaining
c         MB  reductions conflicts       size  tier2       irredundant
c           level restarts    redundant    glue    trail          variables
c
c u  2.19 28 271 0 5 853 32 7705 2898 3.5 21 6 2 10 26% 11380 98582 22546 65%
c v  2.21 28 271 0 5 853 32 7705 2775 3.5 21 6 2 10 26% 11380 98582 22546 65%
c w  2.23 28 271 0 5 853 32 7705 2770 3.5 21 6 2 10 26% 11380 98582 22546 65%
c x  2.26 28 271 0 5 853 32 7705 2770 3.5 21 6 2 10 26% 11380 94819 22546 65%
c =  2.35 28 271 0 5 853 32 7705 2770 3.5 21 6 2 10 26% 11958 94817 22257 64%
c d  2.36 28 271 0 5 853 32 7705 2761 3.5 21 6 2 10 26% 11281 94817 22257 64%
c t  2.37 28 271 0 5 853 32 7705 2761 3.5 21 6 2 10 26% 11252 94817 22257 64%
c f  2.40 28 271 0 5 853 32 7705 2761 3.5 21 6 2 10 26% 11555 94361 22410 65%
c -  2.84 28 274 0 6 1096 36 9385 3660 4.0 24 6 2 10 28% 11590 94361 22410 65%
c o  3.01 28 291 0 6 1188 37 10002 4198 4.2 26 6 2 10 28% 11610 94361 22410 65%
c -  3.40 28 309 0 7 1392 37 11837 4986 4.2 28 7 2 9 27% 11686 94361 22410 65%
c s  3.60 28 308 0 7 1508 38 12505 5580 4.4 29 7 2 9 28% 11702 92660 22410 65%
c e  3.69 28 308 0 7 1508 38 12505 5580 4.4 29 7 2 9 28% 10116 93577 21096 61%
c s  3.70 28 308 0 7 1508 38 12505 5580 4.4 29 7 2 9 28% 10117 92611 21096 61%
c e  3.71 28 308 0 7 1508 38 12505 5580 4.4 29 7 2 9 28% 10112 92616 21089 61%
c ^  3.71 28 308 0 7 1508 38 12505 5580 4.4 29 7 2 9 28% 10112 92616 21089 61%
c -  4.17 28 293 0 8 1770 37 14482 5907 4.5 32 7 2 8 27% 10134 92616 21089 61%
c d  4.32 28 306 0 8 1849 37 15782 7014 4.4 32 7 2 8 27% 9943 92616 20951 60%
c u  4.35 28 306 0 8 1849 37 15782 5698 4.4 32 7 2 8 27% 9959 92616 20951 60%
c v  4.38 28 306 0 8 1849 37 15782 4883 4.4 32 7 2 8 27% 9959 92616 20951 60%
c
c  seconds   switched    rate        size/glue tier1    binary         remaining
c         MB  reductions   conflicts       size  tier2     irredundant
c           level  restarts     redundant    glue   trail         variables
c
c w  4.44 28 306 0 8 1849 37 15782 4864 4.4 32 7 2 8 27% 9959 92616 20951 60%
c x  4.47 28 306 0 8 1849 37 15782 4864 4.4 32 7 2 8 27% 9960 90171 20951 60%
c =  4.69 28 306 0 8 1849 37 15782 4864 4.4 32 7 2 8 27% 12412 90171 19725 57%
c d  4.70 28 306 0 8 1849 37 15782 4773 4.4 32 7 2 8 27% 9436 90171 19724 57%
c t  4.71 28 306 0 8 1849 37 15782 4773 4.4 32 7 2 8 27% 9428 90171 19724 57%
c f  4.75 28 306 0 8 1849 37 15782 4773 4.4 32 7 2 8 27% 9429 90166 19726 57%
c c  4.80 28 306 0 8 1849 37 15782 4772 4.4 32 7 2 8 27% 9433 90158 19724 57%
c d  4.81 28 306 0 8 1849 37 15782 4772 4.4 32 7 2 8 27% 9429 90158 19724 57%
c u  4.82 28 306 0 8 1849 37 15782 4366 4.4 32 7 2 8 27% 9430 90158 19724 57%
c v  4.85 28 306 0 8 1849 37 15782 4228 4.4 32 7 2 8 27% 9430 90158 19724 57%
c w  4.90 28 306 0 8 1849 37 15782 4213 4.4 32 7 2 8 27% 9430 90158 19724 57%
c x  4.95 28 306 0 8 1849 37 15782 4211 4.4 32 7 2 8 27% 9430 86470 19724 57%
c =  5.13 28 306 0 8 1849 37 15782 4211 4.4 32 7 2 8 27% 11606 86470 18636 54%
c d  5.13 28 306 0 8 1849 37 15782 4134 4.4 32 7 2 8 27% 9130 86470 18636 54%
c -  5.33 28 294 0 9 1898 35 17310 4889 4.2 30 7 2 8 26% 9142 86470 18636 54%
c o  5.75 28 287 0 9 2147 34 20015 7317 4.3 31 7 2 8 25% 9167 86470 18636 54%
c -  5.84 28 285 0 10 2188 34 20311 6620 4.3 31 7 2 8 26% 9167 86470 18636 54%
c -  6.21 28 301 0 11 2352 32 23474 8343 4.2 30 7 2 7 26% 9211 86470 18636 54%
c s  6.41 28 305 0 11 2467 32 25005 9628 4.2 29 7 2 7 26% 9248 84614 18636 54%
c e  6.51 28 305 0 11 2467 32 25005 9628 4.2 29 7 2 7 26% 7561 88540 15516 45%
c
c  seconds   switched     rate        size/glue tier1    binary         remaining
c         MB   reductions   conflicts       size  tier2     irredundant
c           level   restarts     redundant    glue   trail         variables
c
c s  6.54 28 305 0 11 2467 32 25005 9628 4.2 29 7 2 7 26% 7566 84124 15516 45%
c e  6.58 28 305 0 11 2467 32 25005 9628 4.2 29 7 2 7 26% 7555 84145 15506 45%
c ^  6.58 28 305 0 11 2467 32 25005 9628 4.2 29 7 2 7 26% 7555 84145 15506 45%
c -  6.90 28 293 0 12 2597 31 26794 8016 4.0 28 7 2 8 26% 7569 84145 15506 45%
c d  6.91 28 292 0 12 2601 31 26909 8081 4.0 28 7 2 8 26% 7531 84145 15479 45%
c u  6.94 28 292 0 12 2601 31 26909 6640 4.0 28 7 2 8 26% 7539 84145 15479 45%
c v  6.96 28 292 0 12 2601 31 26909 5730 4.0 28 7 2 8 26% 7540 84145 15479 45%
c w  6.97 28 292 0 12 2601 31 26909 5730 4.0 28 7 2 8 26% 7540 84145 15479 45%
c x  7.03 28 292 0 12 2601 31 26909 5730 4.0 28 7 2 8 26% 7540 81866 15479 45%
c =  7.21 28 292 0 12 2601 31 26909 5730 4.0 28 7 2 8 26% 9992 81856 14253 41%
c d  7.22 28 292 0 12 2601 31 26909 5498 4.0 28 7 2 8 26% 7499 81856 14253 41%
c t  7.23 28 292 0 12 2601 31 26909 5498 4.0 28 7 2 8 26% 7482 81856 14253 41%
c f  7.30 28 292 0 12 2601 31 26909 5498 4.0 28 7 2 8 26% 7490 81790 14269 41%
c u  7.32 28 292 0 12 2601 31 26909 5009 4.0 28 7 2 8 26% 7490 81790 14269 41%
c v  7.34 28 292 0 12 2601 31 26909 4891 4.0 28 7 2 8 26% 7490 81790 14269 41%
c w  7.34 28 292 0 12 2601 31 26909 4890 4.0 28 7 2 8 26% 7490 81790 14269 41%
c x  7.41 28 292 0 12 2601 31 26909 4889 4.0 28 7 2 8 26% 7490 72024 14269 41%
c =  7.58 28 292 0 12 2601 31 26909 4889 4.0 28 7 2 8 26% 7932 72022 14048 40%
c d  7.59 28 292 0 12 2601 31 26909 4871 4.0 28 7 2 8 26% 7485 72022 14048 40%
c -  7.91 28 270 0 13 2732 29 30260 6895 3.8 26 7 2 8 26% 7512 72021 14048 40%
c
c  seconds   switched     rate        size/glue tier1    binary         remaining
c         MB   reductions   conflicts       size  tier2     irredundant
c           level   restarts     redundant    glue   trail         variables
c
c -  8.30 28 255 0 14 2960 27 33865 8925 3.6 25 7 2 8 26% 7532 72019 14048 40%
c -  8.68 28 245 0 15 3184 26 37606 10643 3.5 24 7 2 8 26% 7568 72018 14048 40%
c o  8.94 28 238 0 15 3350 26 40028 12732 3.4 23 7 2 8 26% 7599 72016 14048 40%
c c  9.16 28 237 0 15 3467 26 41261 13856 3.4 23 7 2 8 26% 7682 71635 13966 40%
c d  9.16 28 237 0 15 3467 26 41261 13669 3.4 23 7 2 8 26% 7515 71635 13964 40%
c u  9.21 28 237 0 15 3467 26 41261 11808 3.4 23 7 2 8 26% 7530 71635 13964 40%
c v  9.25 28 237 0 15 3467 26 41261 11089 3.4 23 7 2 8 26% 7530 71635 13964 40%
c w  9.27 28 237 0 15 3467 26 41261 11089 3.4 23 7 2 8 26% 7530 71635 13964 40%
c x  9.30 28 237 0 15 3467 26 41261 11089 3.4 23 7 2 8 26% 7530 71481 13964 40%
c =  9.48 28 237 0 15 3467 26 41261 11089 3.4 23 7 2 8 26% 8638 71481 13410 39%
c d  9.49 28 237 0 15 3467 26 41261 10413 3.4 23 7 2 8 26% 7470 71481 13410 39%
c t  9.50 28 237 0 15 3467 26 41261 10413 3.4 23 7 2 8 26% 7466 71481 13410 39%
c u  9.54 28 237 0 15 3467 26 41261 9757 3.4 23 7 2 8 26% 7467 71481 13410 39%
c v  9.58 28 237 0 15 3467 26 41261 8825 3.4 23 7 2 8 26% 7467 71481 13410 39%
c w  9.61 28 237 0 15 3467 26 41261 8825 3.4 23 7 2 8 26% 7467 71481 13410 39%
c x  9.65 30 237 0 15 3467 26 41261 8825 3.4 23 7 2 8 26% 7467 66580 13410 39%
c =  9.83 30 237 0 15 3467 26 41261 8825 3.4 23 7 2 8 26% 7609 66580 13339 38%
c d  9.84 30 237 0 15 3467 26 41261 8810 3.4 23 7 2 8 26% 7462 66580 13339 38%
c f  9.86 30 237 0 15 3467 26 41261 8810 3.4 23 7 2 8 26% 7464 66575 13340 38%
c -  9.90 30 236 0 16 3498 26 41478 7824 3.4 23 7 2 7 26% 7470 66575 13340 38%
c
c  seconds   switched     rate        size/glue tier1    binary         remaining
c         MB   reductions   conflicts       size  tier2     irredundant
c           level   restarts     redundant    glue   trail         variables
c
c - 10.20 30 228 0 17 3703 25 45479 9846 3.3 23 7 2 7 26% 7500 66573 13340 38%
c - 10.57 30 224 0 18 3986 24 49605 11967 3.3 22 7 2 7 26% 7558 66571 13340 38%
c s 10.95 30 220 0 18 4261 24 52111 14260 3.2 22 7 2 7 26% 7574 65923 13340 38%
c e 11.02 30 220 0 18 4261 24 52111 14260 3.2 22 7 2 7 26% 6530 67696 12561 36%
c 2 11.02 30 220 0 18 4261 24 52111 14260 3.2 22 7 2 7 26% 6529 67696 12561 36%
c s 11.03 30 220 0 18 4261 24 52111 14260 3.2 22 7 2 7 26% 6530 67434 12561 36%
c e 11.04 30 220 0 18 4261 24 52111 14260 3.2 22 7 2 7 26% 6527 67449 12553 36%
c ^ 11.04 30 220 0 18 4261 24 52111 14260 3.2 22 7 2 7 26% 6527 67449 12553 36%
c - 11.27 30 215 0 19 4428 24 53847 12483 3.2 22 7 2 7 26% 6531 67449 12553 36%
c - 11.71 30 209 0 20 4758 24 58205 14437 3.1 21 7 2 6 26% 6570 67449 12553 36%
c c 11.83 30 208 0 20 4820 24 58942 15075 3.1 21 7 2 6 26% 6639 67109 12499 36%
c d 11.84 30 208 0 20 4820 24 58942 14875 3.1 21 7 2 6 26% 6531 67109 12499 36%
c u 11.88 30 208 0 20 4820 24 58942 12386 3.1 21 7 2 6 26% 6553 67109 12499 36%
c v 11.92 30 208 0 20 4820 24 58942 11094 3.1 21 7 2 6 26% 6556 67109 12499 36%
c w 11.94 30 208 0 20 4820 24 58942 11090 3.1 21 7 2 6 26% 6556 67109 12499 36%
c x 12.01 30 208 0 20 4820 24 58942 11090 3.1 21 7 2 6 26% 6556 66905 12499 36%
c = 12.20 30 208 0 20 4820 24 58942 11090 3.1 21 7 2 6 26% 6566 66905 12494 36%
c d 12.21 30 208 0 20 4820 24 58942 11084 3.1 21 7 2 6 26% 6544 66905 12488 36%
c t 12.22 30 208 0 20 4820 24 58942 11084 3.1 21 7 2 6 26% 6542 66905 12488 36%
c f 12.24 30 208 0 20 4820 24 58942 11084 3.1 21 7 2 6 26% 6557 66835 12499 36%
c
c  seconds   switched     rate         size/glue tier1    binary         remaining
c         MB   reductions   conflicts        size  tier2     irredundant
c           level   restarts      redundant    glue   trail         variables
c
c c 12.28 30 208 0 20 4820 24 58942 11076 3.1 21 7 2 6 26% 6564 66803 12495 36%
c d 12.29 30 208 0 20 4820 24 58942 11076 3.1 21 7 2 6 26% 6556 66803 12495 36%
c u 12.33 30 208 0 20 4820 24 58942 10576 3.1 21 7 2 6 26% 6562 66803 12495 36%
c v 12.36 30 208 0 20 4820 24 58942 10197 3.1 21 7 2 6 26% 6562 66803 12495 36%
c w 12.40 30 208 0 20 4820 24 58942 10155 3.1 21 7 2 6 26% 6562 66803 12495 36%
c = 12.57 30 208 0 20 4820 24 58942 10155 3.1 21 7 2 6 26% 6578 66803 12487 36%
c d 12.58 30 208 0 20 4820 24 58942 10147 3.1 21 7 2 6 26% 6552 66803 12483 36%
c - 13.08 30 204 0 21 5121 23 62677 11906 3.1 21 7 2 6 26% 6570 66803 12483 36%
c - 13.69 30 200 0 22 5617 23 67259 14253 3.1 21 7 2 6 26% 6599 66802 12483 36%
c o 13.87 30 201 0 22 5776 23 70035 16557 3.1 21 7 2 6 26% 6634 66799 12483 36%
c - 14.07 30 199 0 23 5929 23 71949 16154 3.0 21 7 2 6 26% 6654 66799 12483 36%
c - 14.86 30 195 0 24 6577 23 76744 17834 3.1 21 7 2 6 27% 6707 66799 12483 36%
c d 15.45 30 192 0 24 7046 24 80061 20500 3.1 22 7 2 6 27% 6584 66799 12405 36%
c u 15.51 30 192 0 24 7046 24 80061 17299 3.1 22 7 2 6 27% 6611 66799 12405 36%
c v 15.59 30 192 0 24 7046 24 80061 15237 3.1 22 7 2 6 27% 6618 66799 12405 36%
c w 15.66 30 192 0 24 7046 24 80061 15237 3.1 22 7 2 6 27% 6618 66799 12405 36%
c x 15.71 30 192 0 24 7046 24 80061 15237 3.1 22 7 2 6 27% 6618 66737 12405 36%
c = 16.03 30 192 0 24 7046 24 80061 15237 3.1 22 7 2 6 27% 7012 66737 12208 35%
c d 16.03 30 192 0 24 7046 24 80061 14913 3.1 22 7 2 6 27% 6537 66737 12206 35%
c t 16.04 30 192 0 24 7046 24 80061 14913 3.1 22 7 2 6 27% 6535 66737 12206 35%
c
c  seconds   switched     rate         size/glue tier1    binary         remaining
c         MB   reductions   conflicts        size  tier2     irredundant
c           level   restarts      redundant    glue   trail         variables
c
c c 16.09 30 192 0 24 7046 24 80061 14913 3.1 22 7 2 6 27% 6548 66661 12197 35%
c d 16.09 30 192 0 24 7046 24 80061 14898 3.1 22 7 2 6 27% 6530 66661 12197 35%
c u 16.14 30 192 0 24 7046 24 80061 14210 3.1 22 7 2 6 27% 6534 66661 12197 35%
c v 16.18 30 192 0 24 7046 24 80061 13746 3.1 22 7 2 6 27% 6536 66661 12197 35%
c w 16.37 30 192 0 24 7046 24 80061 13621 3.1 22 7 2 6 27% 6536 66661 12197 35%
c = 16.69 30 192 0 24 7046 24 80061 13621 3.1 22 7 2 6 27% 6702 66573 12104 35%
c d 16.70 30 192 0 24 7046 24 80061 13566 3.1 22 7 2 6 27% 6522 66573 12104 35%
c - 16.94 30 190 0 25 7170 23 81642 13315 3.0 22 7 2 6 27% 6518 66570 12104 35%
c - 17.56 30 189 0 26 7608 23 86642 15837 3.0 21 7 2 6 27% 6548 66569 12104 35%
c - 18.23 30 187 0 27 8100 23 91743 16666 3.0 21 7 1 5 27% 6577 66567 12104 35%
c s 18.85 30 183 0 27 8564 23 95896 20453 3.0 22 7 1 5 27% 6586 64859 12104 35%
c e 18.93 30 183 0 27 8564 23 95896 20453 3.0 22 7 1 5 27% 4422 70576 10884 31%
c 2 18.93 30 183 0 27 8564 23 95896 20453 3.0 22 7 1 5 27% 4421 70576 10884 31%
c s 18.94 30 183 0 27 8564 23 95896 20453 3.0 22 7 1 5 27% 4421 70371 10884 31%
c e 18.95 30 183 0 27 8564 23 95896 20453 3.0 22 7 1 5 27% 4419 70432 10855 31%
c ^ 18.95 30 183 0 27 8564 23 95896 20453 3.0 22 7 1 5 27% 4419 70432 10855 31%
c - 19.05 30 182 0 28 8639 23 96941 14730 3.0 21 7 1 5 27% 4437 70432 10855 31%
c - 19.95 30 179 0 29 9415 23 102233 16673 2.9 22 7 1 5 28% 4455 70429 10855 31%
c i 20.18 30 178 0 29 9578 23 103594 17892 2.9 22 7 1 5 28% 4471 70427 10854 31%
c d 20.29 30 177 0 29 9656 23 104743 18753 2.9 22 7 1 5 28% 4440 70411 10836 31%
c
c  seconds   switched     rate          size/glue tier1    binary         remaining
c         MB   reductions   conflicts         size  tier2     irredundant
c           level   restarts       redundant    glue   trail         variables
c
c d 20.29 30 177 0 29 9656 23 104743 18751 2.9 22 7 1 5 28% 4438 70411 10835 31%
c u 20.33 30 177 0 29 9656 23 104743 16762 2.9 22 7 1 5 28% 4462 70411 10835 31%
c v 20.40 30 177 0 29 9656 23 104743 13870 2.9 22 7 1 5 28% 4472 70411 10835 31%
c w 20.56 30 177 0 29 9656 23 104743 13442 2.9 22 7 1 5 28% 4472 70411 10835 31%
c = 20.96 30 177 0 29 9656 23 104743 13442 2.9 22 7 1 5 28% 4514 70411 10814 31%
c d 20.96 30 177 0 29 9656 23 104743 13330 2.9 22 7 1 5 28% 4441 70411 10808 31%
c t 20.97 30 177 0 29 9656 23 104743 13330 2.9 22 7 1 5 28% 4430 70411 10808 31%
c u 21.07 30 177 0 29 9656 23 104743 12772 2.9 22 7 1 5 28% 4436 70411 10808 31%
c v 21.11 30 177 0 29 9656 23 104743 12210 2.9 22 7 1 5 28% 4437 70411 10808 31%
c w 21.25 30 177 0 29 9656 23 104743 12070 2.9 22 7 1 5 28% 4437 70411 10808 31%
c x 21.31 30 177 0 29 9656 23 104743 12070 2.9 22 7 1 5 28% 4437 70357 10808 31%
c = 21.71 30 177 0 29 9656 23 104743 12070 2.9 22 7 1 5 28% 4463 70357 10795 31%
c d 21.72 30 177 0 29 9656 23 104743 12057 2.9 22 7 1 5 28% 4428 70357 10794 31%
c t 21.73 30 177 0 29 9656 23 104743 12057 2.9 22 7 1 5 28% 4427 70357 10794 31%
c - 22.19 30 176 0 30 9949 23 107618 12600 2.9 22 7 1 5 28% 4435 70357 10794 31%
c o 22.51 30 174 0 30 10175 23 110837 15246 2.9 21 7 1 5 28% 4478 70357 10794 31%
c i 22.58 30 174 0 30 10233 23 111266 15658 2.9 21 7 1 5 28% 4479 70356 10788 31%
c i 22.58 30 174 0 30 10233 23 111271 15656 2.9 21 7 1 5 28% 4481 70356 10784 31%
c i 22.62 30 174 0 30 10263 23 111521 15873 2.9 21 7 1 5 28% 4486 70356 10783 31%
c i 22.64 30 174 0 30 10267 23 111763 16095 2.9 21 7 1 5 28% 4489 70356 10782 31%
c
c  seconds   switched      rate          size/glue tier1    binary         remaining
c         MB   reductions    conflicts         size  tier2     irredundant
c           level   restarts        redundant    glue   trail         variables
c
c i 22.66 30 173 0 30 10275 23 112101 16317 2.9 21 7 1 5 28% 4502 70356 10781 31%
c i 22.81 30 173 0 30 10363 23 112597 16795 2.9 21 7 1 5 28% 4503 70356 10779 31%
c - 22.92 30 173 0 31 10449 23 113095 14348 2.9 21 7 1 5 28% 4528 70356 10778 31%
c i 23.24 30 171 0 31 10706 23 115685 16659 2.9 21 7 1 5 28% 4553 70356 10777 31%
c i 23.31 30 170 0 31 10756 23 116339 17217 2.9 21 7 1 5 28% 4568 70353 10776 31%
c i 23.46 30 170 0 31 10853 23 116950 17786 2.9 21 8 1 5 28% 4571 70353 10774 31%
c i 23.47 30 170 0 31 10858 23 116986 17797 2.9 21 8 1 5 28% 4572 70353 10773 31%
c - 23.64 30 168 0 32 10948 22 118662 16125 2.8 21 8 1 5 28% 4561 70351 10773 31%
c i 23.72 30 168 0 32 11008 22 119206 16632 2.8 21 8 1 5 28% 4562 70351 10772 31%
c i 23.76 30 168 0 32 11036 22 119415 16810 2.8 21 8 1 5 28% 4566 70351 10771 31%
c i 23.83 30 167 0 32 11100 22 119926 17265 2.8 21 8 1 5 28% 4573 70351 10770 31%
c i 24.11 30 165 0 32 11316 22 121898 19078 2.8 21 8 1 5 28% 4581 70351 10769 31%
c i 24.13 30 165 0 32 11339 22 122099 19261 2.8 21 8 1 5 28% 4585 70351 10768 31%
c i 24.29 30 163 0 32 11450 22 123642 20665 2.8 21 8 1 5 28% 4588 70351 10767 31%
c - 24.38 30 163 0 33 11505 22 124318 17299 2.8 21 8 1 5 28% 4580 70349 10767 31%
c i 24.51 30 162 0 33 11631 22 125393 18304 2.8 21 8 1 5 28% 4585 70348 10764 31%
c i 24.51 30 162 0 33 11631 22 125394 18304 2.8 21 8 1 5 28% 4585 70348 10763 31%
c i 24.54 30 162 0 33 11649 22 125523 18417 2.8 21 8 1 5 28% 4589 70348 10762 31%
c i 24.63 30 159 0 33 11726 22 127384 19890 2.8 21 8 1 5 27% 4610 70348 10761 31%
c i 24.86 30 156 0 33 11886 21 129632 21894 2.7 21 8 1 5 27% 4622 70348 10760 31%
c
c  seconds   switched      rate          size/glue tier1    binary         remaining
c         MB   reductions    conflicts         size  tier2     irredundant
c           level   restarts        redundant    glue   trail         variables
c
c - 24.89 30 156 0 34 11899 21 130062 18124 2.7 21 8 1 5 27% 4613 70348 10760 31%
c i 24.90 30 156 0 34 11901 21 130157 18207 2.7 21 8 1 5 27% 4614 70348 10759 31%
c c 25.18 30 153 0 34 12124 21 133051 20775 2.7 21 8 1 5 27% 4670 69483 10644 31%
c d 25.19 30 153 0 34 12124 21 133051 20123 2.7 21 8 1 5 27% 4514 69409 10644 31%
c d 25.19 30 153 0 34 12124 21 133051 20102 2.7 21 8 1 5 27% 4439 69409 10607 31%
c u 25.23 30 153 0 34 12124 21 133051 18075 2.7 21 8 1 5 27% 4461 69409 10607 31%
c v 25.29 30 153 0 34 12124 21 133051 15079 2.7 21 8 1 5 27% 4463 69409 10607 31%
c w 25.38 30 153 0 34 12124 21 133051 14603 2.7 21 8 1 5 27% 4463 69409 10607 31%
c d 25.78 30 153 0 34 12124 21 133051 14591 2.7 21 8 1 5 27% 4441 69409 10596 31%
c t 25.79 30 153 0 34 12124 21 133051 14591 2.7 21 8 1 5 27% 4437 69409 10596 31%
c u 25.83 30 153 0 34 12124 21 133051 14199 2.7 21 8 1 5 27% 4442 69409 10596 31%
c v 25.87 30 153 0 34 12124 21 133051 13673 2.7 21 8 1 5 27% 4442 69409 10596 31%
c w 25.93 30 153 0 34 12124 21 133051 13541 2.7 21 8 1 5 27% 4442 69409 10596 31%
c d 25.93 30 153 0 34 12124 21 133051 13540 2.7 21 8 1 5 27% 4436 69409 10593 31%
c i 25.95 30 153 0 34 12124 21 133071 13543 2.7 21 8 1 5 27% 4439 69409 10591 31%
c i 25.98 30 152 0 34 12135 21 133375 13817 2.7 21 8 1 5 27% 4441 69408 10589 31%
c i 25.99 30 152 0 34 12148 21 133732 14090 2.7 21 8 1 5 27% 4445 69406 10588 31%
c i 25.99 30 152 0 34 12151 21 133797 14142 2.7 21 8 1 5 27% 4447 69406 10586 30%
c i 26.02 30 150 0 34 12186 20 134884 15040 2.7 20 8 1 5 26% 4454 69404 10585 30%
c i 26.02 30 150 0 34 12187 20 135032 15152 2.7 20 8 1 5 26% 4456 69404 10584 30%
c
c  seconds   switched      rate          size/glue tier1    binary         remaining
c         MB   reductions    conflicts         size  tier2     irredundant
c           level   restarts        redundant    glue   trail         variables
c
c - 26.04 30 149 0 35 12202 20 135893 12700 2.7 20 8 1 5 26% 4432 69404 10584 30%
c i 26.04 30 148 0 35 12202 20 136044 12814 2.7 20 8 1 5 26% 4432 69404 10583 30%
c i 26.04 30 148 0 35 12202 20 136299 12976 2.7 20 8 1 5 26% 4442 69404 10582 30%
c i 26.04 30 148 0 35 12202 20 136338 12991 2.7 20 8 1 5 26% 4445 69404 10580 30%
c i 26.04 30 148 0 35 12202 20 136394 13028 2.7 20 8 1 5 26% 4448 69404 10579 30%
c i 26.04 30 148 0 35 12202 20 136417 13034 2.7 20 8 1 5 26% 4450 69404 10572 30%
c i 26.04 30 148 0 35 12202 20 136418 13034 2.7 20 8 1 5 26% 4450 69404 10570 30%
c i 26.04 30 148 0 35 12202 20 136428 13034 2.7 20 8 1 5 26% 4452 69404 10569 30%
c i 26.05 30 148 0 35 12202 20 136430 13035 2.7 20 8 1 5 26% 4452 69404 10565 30%
c i 26.05 30 148 0 35 12202 20 136431 13035 2.7 20 8 1 5 26% 4452 69404 10559 30%
c i 26.05 30 148 0 35 12202 20 136432 13035 2.7 20 8 1 5 26% 4452 69404 10558 30%
c } 26.05 30 148 0 35 12202 20 136434 13035 2.7 20 8 1 5 26% 4452 69404 10542 30%
c 0 26.05 30 148 0 35 12202 20 136434 13035 2.7 20 8 1 5 26% 4452 69404 10542 30%
c
c ---- [ result ] ------------------------------------------------------------
c
s UNSATISFIABLE
c
c ---- [ profiling ] ---------------------------------------------------------
c
c          17.65   67.76 %  search
c          17.65   67.76 %  focused
c           8.05   30.92 %  simplify
c           7.71   29.59 %  probe
c           3.64   13.97 %  sweep
c           2.68   10.29 %  vivify
c           0.54    2.07 %  eliminate
c           0.51    1.95 %  factor
c           0.40    1.55 %  congruence
c           0.36    1.37 %  substitute
c           0.30    1.14 %  preprocess
c           0.14    0.56 %  reduce
c           0.10    0.40 %  subsume
c           0.10    0.38 %  fastel
c           0.08    0.33 %  transitive
c           0.04    0.14 %  backbone
c           0.03    0.10 %  lucky
c           0.02    0.08 %  parse
c =============================================
c          26.05  100.00 %  total
c
c ---- [ statistics ] --------------------------------------------------------
c
c chronological:                         4381                3 %  conflicts
c conflicts:                           136434             5238.28 per second
c congruent:                             3693               11 %  variables
c decisions:                          2789751               20.45 per conflict
c eliminated:                           17591               51 %  variables
c factored:                              3627               10 %  variables
c fast_eliminated:                      11104               63 %  eliminated
c fast_strengthened:                       10                0 %  per strengthened
c fast_subsumed:                           62                1 %  per subsumed
c iterations:                              40                0 %  variables
c propagations:                     119410232          4584670    per second
c reductions:                              35             3898    interval
c reordered:                                5            27287    interval
c restarts:                             12202               11    interval
c strengthened:                          3464                0 %  checks
c substituted:                          10106               29 %  variables
c subsumed:                             11817                0 %  checks
c switched:                                 0                0    interval
c vivified:                             75616               16 %  checks
c
c ---- [ glue usage ] --------------------------------------------------------
c
c focused glue 1 used 182704 clauses 54.38% accumulated 54.38% tier1
c focused glue 2 used  75306 clauses 22.42% accumulated 76.80%
c focused glue 3 used  23867 clauses  7.10% accumulated 83.90%
c focused glue 4 used  13748 clauses  4.09% accumulated 88.00%
c focused glue 5 used   9295 clauses  2.77% accumulated 90.76% tier2
c
c ---- [ resources ] ---------------------------------------------------------
c
c maximum-resident-set-size:         31064064 bytes         30 MB
c process-time:                            26s              26.05 seconds
c
c ---- [ shutting down ] -----------------------------------------------------
c
c exit 20
